
******************************************************************************
This program contains Ipopt, a library for large-scale nonlinear optimization.
 Ipopt is released as open source code under the Eclipse Public License (EPL).
         For more information visit http://projects.coin-or.org/Ipopt
******************************************************************************

This is Ipopt version 3.12.6, running with linear solver ma57.

Number of nonzeros in equality constraint Jacobian...:    10395
Number of nonzeros in inequality constraint Jacobian.:        0
Number of nonzeros in Lagrangian Hessian.............:     8004

Reallocating memory for MA57: lfact (90417)
Total number of variables............................:     2403
                     variables with only lower bounds:      801
                variables with lower and upper bounds:      800
                     variables with only upper bounds:        0
Total number of equality constraints.................:     2002
Total number of inequality constraints...............:        0
        inequality constraints with only lower bounds:        0
   inequality constraints with lower and upper bounds:        0
        inequality constraints with only upper bounds:        0

iter    objective    inf_pr   inf_du lg(mu)  ||d||  lg(rg) alpha_du alpha_pr  ls
   0 -1.0100000e+00 1.92e+01 9.31e-01  -1.0 0.00e+00    -  0.00e+00 0.00e+00   0
   1 -1.0058886e+00 1.81e+01 8.10e+02  -1.0 3.93e+00   2.0 3.10e-01 1.54e-02h  1
   2 -1.0052613e+00 1.75e+01 1.04e+03  -1.0 1.30e+00   1.5 1.82e-01 2.92e-02h  1
   3 -1.0071419e+00 1.28e+01 2.56e+03  -1.0 6.10e+00    -  3.63e-01 1.78e-01h  1
   4 -1.0133763e+00 4.78e+00 2.92e+03  -1.0 4.12e+00    -  2.19e-01 4.75e-01h  1
   5 -1.0162898e+00 2.31e+00 4.88e+03  -1.0 1.18e+00    -  5.98e-01 4.59e-01h  1
   6 -1.0092883e+00 1.92e+00 4.45e+04  -1.0 1.42e+02    -  6.22e-03 4.74e-02f  1
   7 -1.0094556e+00 1.59e+00 1.88e+04  -1.0 3.00e+01    -  2.22e-02 1.90e-01h  1
   8 -1.0099793e+00 1.15e+00 2.89e+03  -1.0 1.36e+01    -  2.34e-02 2.45e-01h  1
   9 -1.0097157e+00 1.08e+00 2.85e+03  -1.0 4.01e+00    -  2.53e-01 5.71e-02h  1
iter    objective    inf_pr   inf_du lg(mu)  ||d||  lg(rg) alpha_du alpha_pr  ls
  10 -1.0096372e+00 8.05e-01 9.88e+03  -1.0 5.56e+00    -  5.96e-02 2.57e-01f  1
  11 -1.0091698e+00 6.94e-01 8.65e+03  -1.0 6.87e+00    -  1.52e-01 1.38e-01h  1
  12 -1.0090530e+00 5.91e-01 8.92e+03  -1.0 7.78e+00    -  1.47e-01 1.49e-01h  1
Reallocating memory for MA57: lfact (96873)
  13 -1.0092400e+00 5.19e-01 1.05e+04  -1.0 9.49e+00    -  1.19e-01 1.23e-01f  1
  14 -1.0096077e+00 4.65e-01 1.18e+04  -1.0 1.12e+01    -  1.05e-01 1.05e-01f  1
  15 -1.0101994e+00 4.22e-01 1.28e+04  -1.0 1.29e+01    -  1.03e-01 9.19e-02f  1
  16 -1.0110161e+00 3.92e-01 1.34e+04  -1.0 1.58e+01    -  1.04e-01 7.05e-02f  1
Reallocating memory for MA57: lfact (101974)
  17 -1.0116542e+00 3.82e-01 1.33e+04  -1.0 3.11e+01    -  1.32e-01 2.63e-02f  1
  18 -1.0164361e+00 4.74e-01 7.44e+03  -1.0 2.26e+01    -  8.41e-02 6.66e-02f  1
Reallocating memory for MA57: lfact (121098)
  19 -1.0305406e+00 1.93e+00 4.91e+04  -1.0 3.99e+01    -  7.38e-02 1.19e-01f  1
Reallocating memory for MA57: lfact (138690)
iter    objective    inf_pr   inf_du lg(mu)  ||d||  lg(rg) alpha_du alpha_pr  ls
  20 -1.0447955e+00 3.91e+00 5.17e+05  -1.0 2.00e+01    -  5.47e-02 4.02e-01f  1
  21 -1.0226217e+00 3.04e+00 3.38e+05  -1.0 6.85e+00    -  2.40e-01 3.90e-01h  2
  22 -1.0058505e+00 9.85e-01 2.79e+05  -1.0 5.37e+00    -  2.18e-01 6.96e-01H  1
  23 -1.0048940e+00 5.42e-01 2.48e+05  -1.0 2.96e+00    -  2.11e-01 7.80e-01h  1
  24 -1.0055598e+00 4.22e-01 1.66e+05  -1.0 1.44e+00    -  7.15e-01 9.96e-01f  1
  25 -1.0069918e+00 2.18e-01 7.13e+04  -1.0 1.69e+00    -  9.46e-01 1.00e+00f  1
  26 -1.0083107e+00 1.25e-01 1.19e+05  -1.0 1.18e+00    -  8.39e-01 1.00e+00f  1
  27 -1.0078143e+00 1.85e-03 1.52e+03  -1.0 5.57e-01    -  1.00e+00 1.00e+00f  1
  28 -1.0078148e+00 1.24e-05 3.55e+00  -1.0 4.46e-02    -  1.00e+00 1.00e+00h  1
  29 -1.0078149e+00 5.20e-10 5.14e+00  -2.5 1.69e-04    -  1.00e+00 1.00e+00h  1
iter    objective    inf_pr   inf_du lg(mu)  ||d||  lg(rg) alpha_du alpha_pr  ls
  30 -1.0078224e+00 6.59e-07 3.21e-04  -2.5 5.22e-03    -  1.00e+00 1.00e+00h  1
  31 -1.0078297e+00 6.23e-07 5.22e+00  -3.8 5.62e-03    -  1.00e+00 1.00e+00h  1
  32 -1.0079591e+00 1.87e-04 5.44e-03  -3.8 1.01e-01    -  1.00e+00 1.00e+00h  1
  33 -1.0079603e+00 8.48e-09 4.32e-06  -3.8 1.14e-03    -  1.00e+00 1.00e+00h  1
  34 -1.0081039e+00 2.08e-04 4.63e+01  -5.7 1.09e-01    -  9.51e-01 1.00e+00h  1
  35 -1.0096642e+00 1.51e-02 1.32e+01  -5.7 2.18e+00    -  6.38e-01 9.56e-01h  1
  36 -1.0113926e+00 1.79e-02 1.35e+00  -5.7 9.90e-01    -  1.00e+00 9.09e-01h  1
  37 -1.0118966e+00 9.76e-03 2.75e-01  -5.7 5.41e-01    -  1.00e+00 1.00e+00h  1
  38 -1.0118727e+00 4.51e-05 2.27e-03  -5.7 1.32e-01    -  1.00e+00 1.00e+00h  1
  39 -1.0118746e+00 5.52e-07 1.04e-05  -5.7 1.25e-02    -  1.00e+00 1.00e+00h  1
iter    objective    inf_pr   inf_du lg(mu)  ||d||  lg(rg) alpha_du alpha_pr  ls
  40 -1.0126564e+00 7.93e-03 5.63e-01  -8.6 5.80e-01    -  8.34e-01 9.08e-01h  1
  41 -1.0127982e+00 4.51e-03 1.71e-01  -8.6 1.13e+00    -  6.80e-01 7.71e-01h  1
  42 -1.0128277e+00 1.61e-03 5.48e-02  -8.6 1.31e+00    -  6.51e-01 7.65e-01h  1
  43 -1.0128338e+00 4.49e-04 1.73e-02  -8.6 1.31e+00    -  6.55e-01 7.88e-01h  1
  44 -1.0128351e+00 6.98e-05 2.91e-03  -8.6 1.32e+00    -  8.22e-01 8.88e-01f  1
  45 -1.0128352e+00 9.73e-06 2.24e-05  -8.6 1.24e+00    -  1.00e+00 1.00e+00f  1
  46 -1.0128352e+00 7.39e-07 1.33e-06  -8.6 2.93e-01    -  1.00e+00 1.00e+00h  1
  47 -1.0128352e+00 2.18e-08 2.99e-08  -8.6 6.22e-02    -  1.00e+00 1.00e+00h  1
  48 -1.0128352e+00 3.25e-11 1.04e-10  -8.6 3.26e-03    -  1.00e+00 1.00e+00h  1

Number of Iterations....: 48

                                   (scaled)                 (unscaled)
Objective...............:  -1.0128352213043506e+00   -1.0128352213043506e+00
Dual infeasibility......:   1.0398113256928146e-10    1.0398113256928146e-10
Constraint violation....:   2.4618342846054186e-12    3.2532476712532343e-11
Complementarity.........:   2.5059798788728340e-09    2.5059798788728340e-09
Overall NLP error.......:   2.5059798788728340e-09    2.5059798788728340e-09


Number of objective function evaluations             = 55
Number of objective gradient evaluations             = 49
Number of equality constraint evaluations            = 55
Number of inequality constraint evaluations          = 0
Number of equality constraint Jacobian evaluations   = 49
Number of inequality constraint Jacobian evaluations = 0
Number of Lagrangian Hessian evaluations             = 48
Total CPU secs in IPOPT (w/o function evaluations)   =      0.250
Total CPU secs in NLP function evaluations           =      0.077

EXIT: Optimal Solution Found.
Note: The following floating-point exceptions are signalling: IEEE_INVALID_FLAG IEEE_DIVIDE_BY_ZERO

************************ CUTEst statistics ************************


 Package used            :  IPOPT
 Problem                 :  ROCKET    
 # variables             =            2407
 # constraints           =            2002
 # objective functions   =        0.1050000E+03
 # objective gradients   =        0.5000000E+02
 # objective Hessians    =        0.4900000E+02
 # Hessian-vector prdct  =        0.0000000E+00
 # constraints functions =        0.1060000E+03
 # constraints gradients =        0.5100000E+02
 # constraints Hessians  =        0.4900000E+02
 Exit code               =               0
 Final f                 =  -0.1012835E+01
 Set up time             =            0.06 seconds
 Solve time              =            0.49 seconds


******************************************************************

System Time =       0.2860000134 s.
